45
1 2167 528
2 2235 2049
3 2820 18
4 1840 1756
5 371 512
6 2204 1632
7 1589 2447
8 1634 2383
9 864 818
10 581 1604
11 983 1483
12 185 364
13 1153 1882
14 1261 1388
15 2401 1315
16 837 436
17 2239 1443
18 1666 2931
19 309 2187
20 2797 995
21 1012 2584
22 636 2246
23 2055 466
24 700 960
25 1968 2139
26 728 2367
27 803 2035
28 2329 2657
29 1640 930
30 767 1781
31 764 1949
32 142 101
33 2498 125
34 565 2177
35 2933 1860
36 1579 2536
37 42 2833
38 1434 235
39 908 1326
40 1848 1378
41 2128 2728
42 795 650
43 358 1894
44 1016 2783
45 62 779
